evm/ejemplos_dzn/EthPriceMintModule_run_code_of_0_block_150_0_input.dzn
TERM = { '.', s0, s1, s2, s3, s4, s5};
null = '.';
s = 8;
n = 6;
min = 3;
N0 = 0;
ZEROARYOP = {};
zeroout = [];
zerogas = [];
zerosz =  [];
zerolb =  [];
zeroub =  [];
N1 = 0;
UNARYOP = {};
unin =  [];
unout = [];
ungas = [];
unsz =  [];
unlb =  [];
unub =  [];
N2 = 1;
BINARYOP = { ADD_0 };
binin1 = [s0 ];
binin2 = [s2 ];
binout = [s5 ];
bincomm = [true ];
bingas = [3 ];
binsz = [1 ];
binlb = [ 1 ];
binub = [ 8 ];
NA = 0;
ASSOCIATIVEADDOP = {};
naddin =  [];
addin =  [||];
addout = [];
addcomm = [];
addgas = [];
addsz =  [];
addlb =  [];
addub =  [];
NPUSH = 0;
PUSHOP = {};
pushout = [];
pushgas = [];
pushsz =  [];
pushlb =  [];
pushub =  [];
NSTORE = 0;
STOROP = {};
storin1 =  [];
storin2 =  [];
storlb =  [];
storub =  [];
storgas = [];
storsz = [];
DUP_ENUM = { DUP1, DUP2, DUP3, DUP4, DUP5};
SWAP_ENUM = { SWAP1, SWAP2, SWAP3, SWAP4, SWAP5};
startstack = [ s0, s1, s2, s3, s4, null ];
endstack = [ s4, s5, null, null, null, null ];
m_dep_n = 0;
memory_dependences = [| |];
s_dep_n = 0;
store_dependences = [| |];
lib = false;
nlib = 0;
lib_elem = [| |];
lib_dis = [];
