evm/ejemplos_results/EthPriceMintModule_run_code_of_0_block_150_0_input.txt
=====UNSATISFIABLE=====
% time elapsed: 0.79 s
